\* Pricing_problem *\
Maximize
OBJ: - 0.125 M_1_1 - 0.5 M_1_2 - 0.25 M_1_3 - 0.375 M_1_4 - 0.125 M_2_1
 - 0.5 M_2_2 - 0.375 M_2_3 - 0.25 M_2_4 - 0.5 M_3_1 - 0.125 M_3_2
 - 0.375 M_3_3 - 0.25 M_3_4 - 0.5 M_4_1 - 0.125 M_4_2 - 0.25 M_4_3
 - 0.375 M_4_4 - 0.25 M_5_4 - 0.125 M_5_5 - 0.375 M_5_6 - 0.25 M_6_3
 - 0.125 M_6_7 - 0.375 M_6_8 + 0.125 M_7_5 - 0.25 M_7_6 + 0.125 M_8_7
 - 0.25 M_8_8
Subject To
EXCL_M_1: M_1_1 + M_2_4 + M_3_2 + M_4_3 + M_5_5 + M_6_7 + M_7_6 + M_8_8 <= 7
EXCL_M_2: M_1_3 + M_2_1 + M_3_4 + M_4_2 + M_5_5 + M_6_7 + M_7_6 + M_8_8 <= 7
EXCL_M_3: M_1_1 + M_2_4 + M_3_2 + M_4_3 + M_5_6 + M_6_7 + M_7_5 + M_8_8 <= 7
EXCL_M_4: M_1_3 + M_2_1 + M_3_4 + M_4_2 + M_5_5 + M_6_8 + M_7_6 + M_8_7 <= 7
EXCL_M_5: M_1_3 + M_2_1 + M_3_2 + M_4_4 + M_5_6 + M_6_8 + M_7_5 + M_8_7 <= 7
EXCL_M_6: M_1_1 + M_2_4 + M_3_3 + M_4_2 + M_5_6 + M_6_8 + M_7_5 + M_8_7 <= 7
LESS_CAP_0_0: M_1_1 + M_2_1 + M_3_1 + M_4_1 <= 1
LESS_CAP_0_1: M_1_2 + M_2_2 + M_3_2 + M_4_2 <= 1
LESS_CAP_0_2: M_1_3 + M_2_3 + M_3_3 + M_4_3 + M_6_3 <= 1
LESS_CAP_0_3: M_1_4 + M_2_4 + M_3_4 + M_4_4 + M_5_4 <= 1
LESS_CAP_0_4: M_5_5 + M_7_5 <= 1
LESS_CAP_0_5: M_5_6 + M_7_6 <= 1
LESS_CAP_0_6: M_6_7 + M_8_7 <= 1
LESS_CAP_0_7: M_6_8 + M_8_8 <= 1
LESS_ONE_0_0: M_1_1 + M_1_2 + M_1_3 + M_1_4 <= 1
LESS_ONE_0_1: M_2_1 + M_2_2 + M_2_3 + M_2_4 <= 1
LESS_ONE_0_2: M_3_1 + M_3_2 + M_3_3 + M_3_4 <= 1
LESS_ONE_0_3: M_4_1 + M_4_2 + M_4_3 + M_4_4 <= 1
LESS_ONE_0_4: M_5_4 + M_5_5 + M_5_6 <= 1
LESS_ONE_0_5: M_6_3 + M_6_7 + M_6_8 <= 1
LESS_ONE_0_6: M_7_5 + M_7_6 <= 1
LESS_ONE_0_7: M_8_7 + M_8_8 <= 1
STAB_1_1: M_1_1 + M_2_1 + M_3_1 + M_4_1 >= 1
STAB_1_2: M_1_1 + M_1_2 + M_1_3 + M_1_4 + M_2_2 >= 1
STAB_1_3: M_1_1 + M_1_3 + M_2_3 + M_3_3 + M_6_3 >= 1
STAB_1_4: M_1_1 + M_1_3 + M_1_4 + M_4_4 >= 1
STAB_2_1: M_1_1 + M_2_1 + M_3_1 + M_4_1 >= 1
STAB_2_2: M_1_2 + M_2_1 + M_2_2 + M_2_3 + M_2_4 >= 1
STAB_2_3: M_2_1 + M_2_3 + M_2_4 + M_3_3 >= 1
STAB_2_4: M_1_4 + M_2_1 + M_2_4 + M_4_4 + M_5_4 >= 1
STAB_3_1: M_3_1 + M_3_2 + M_3_3 + M_3_4 + M_4_1 >= 1
STAB_3_2: M_1_2 + M_2_2 + M_3_2 + M_4_2 >= 1
STAB_3_3: M_3_2 + M_3_3 + M_3_4 >= 1
STAB_3_4: M_1_4 + M_2_4 + M_3_2 + M_3_4 + M_4_4 + M_5_4 >= 1
STAB_4_1: M_3_1 + M_4_1 + M_4_2 + M_4_3 + M_4_4 >= 1
STAB_4_2: M_1_2 + M_2_2 + M_3_2 + M_4_2 >= 1
STAB_4_3: M_1_3 + M_2_3 + M_3_3 + M_4_2 + M_4_3 + M_6_3 >= 1
STAB_4_4: M_4_2 + M_4_3 + M_4_4 >= 1
STAB_5_4: M_1_4 + M_2_4 + M_4_4 + M_5_4 + M_5_5 >= 1
STAB_5_5: M_5_5 + M_7_5 >= 1
STAB_5_6: M_5_4 + M_5_5 + M_5_6 + M_7_6 >= 1
STAB_6_3: M_1_3 + M_2_3 + M_3_3 + M_6_3 + M_6_7 >= 1
STAB_6_7: M_6_7 + M_8_7 >= 1
STAB_6_8: M_6_3 + M_6_7 + M_6_8 + M_8_8 >= 1
STAB_7_5: M_5_5 + M_7_5 >= 1
STAB_7_6: M_7_5 + M_7_6 >= 1
STAB_8_7: M_6_7 + M_8_7 >= 1
STAB_8_8: M_8_7 + M_8_8 >= 1
Bounds
 __dummy = 0
Binaries
M_1_1
M_1_2
M_1_3
M_1_4
M_2_1
M_2_2
M_2_3
M_2_4
M_3_1
M_3_2
M_3_3
M_3_4
M_4_1
M_4_2
M_4_3
M_4_4
M_5_4
M_5_5
M_5_6
M_6_3
M_6_7
M_6_8
M_7_5
M_7_6
M_8_7
M_8_8
End
